(set-info :total-time 1.42)
; Start decls (7)
(declare-fun b10 () (_ FloatingPoint 11 53))
(declare-fun b11 () (_ FloatingPoint 11 53))
(declare-fun b13 () (_ FloatingPoint 11 53))
(declare-fun b17 () (_ FloatingPoint 11 53))
(declare-fun b20 () (_ FloatingPoint 11 53))
(declare-fun b51 () (_ FloatingPoint 11 53))
(declare-fun b54 () (_ FloatingPoint 11 53))
; End decls
; Start constraints (11)
(assert (fp.lt (fp.add roundNearestTiesToEven (fp.neg b11) b10) b17))
(assert (fp.lt (fp.add roundNearestTiesToEven b17 b13)
       (fp.mul roundNearestTiesToEven b10 b20)))
(assert (fp.lt (fp.add roundNearestTiesToEven b11 b10) b13))
(assert (fp.leq b10 b51))
(assert (fp.leq b54 b10))
(assert (fp.leq b11 b51))
(assert (fp.leq b54 b11))
(assert (fp.leq b13 b51))
(assert (fp.leq b54 b13))
(assert (fp.leq b17 b51))
(assert (fp.leq b54 b17))
; End constraints
(check-sat)
